letting n =  10
letting blocks =  [[1, 1], [1, 5], [1, 7], [1, 9], [2, 2], [2, 6], [2, 8], [2, 10], [3, 2], [3, 5], [3, 10], [4, 8], [5, 1], [5, 8], [6, 4], [6, 5], [6, 10], [7, 3], [7, 5], [7, 6], [7, 7], [7, 9], [8, 1], [8, 5], [8, 7], [9, 1], [9, 8], [9, 10], [10, 2], [10, 3], [10, 4], [10, 9]]
